97 205 139  86  60 220  65 111  92 122 154 125 234 
129 103  71 105 258 154 112  79 145  59 156 34 
219 125 175 386 269 134 129 167 151  89 233 
208  39 102 227  60  78  90  89 241 176 
 51 296 150  42  99 231 166  79 215 
279 114  56 210 165 216 197 216 
 78 328 121 345  78 257 342 
169 189  76 188 179 265 
 87  45 123 213 123
 23 361 302 231
111 316 123 
124 121 
176 